
  17    0


   0   8 2 5 11 12 13 14 15 16 
   3   6 10 9 8 7 4 3 
   6   1 6 
   9   1 6 
   1   1 7 
   1   1 17
   4   1 17
   8   1 17
   7   1 17
   9   1 17
   9   1 17
   9   1 17
   2   1 17
   9   1 17
   9   1 17
   6   1 17
   0   0 
